p tw 840 12601 7 
1 8 
1 61 
2 9 
2 10 
2 62 
3 7 
3 10 
3 451 
4 8 
4 9 
4 452 
5 7 
5 9 
5 781 
6 8 
6 10 
6 782 
11 17 
11 18 
11 161 
12 19 
12 20 
12 162 
13 17 
13 20 
13 201 
14 18 
14 19 
14 202 
15 17 
15 19 
15 551 
16 18 
16 20 
16 552 
21 27 
21 28 
21 421 
22 29 
22 30 
22 422 
23 27 
23 30 
23 541 
24 28 
24 29 
24 542 
25 27 
25 29 
25 561 
26 28 
26 30 
26 562 
31 37 
31 38 
31 51 
32 39 
32 40 
32 52 
33 37 
33 40 
33 181 
34 38 
34 39 
34 182 
35 37 
35 39 
35 191 
36 38 
36 40 
36 192 
41 47 
41 48 
41 641 
42 49 
42 50 
42 642 
43 47 
43 50 
43 671 
44 48 
44 49 
44 672 
45 47 
45 49 
45 821 
46 48 
46 50 
46 822 
51 57 
51 58 
52 59 
52 60 
53 57 
53 60 
53 171 
54 58 
54 59 
54 172 
55 57 
55 59 
55 251 
56 58 
56 60 
56 252 
61 67 
61 68 
62 69 
62 70 
63 67 
63 70 
63 371 
64 68 
64 69 
64 372 
65 67 
65 69 
65 701 
66 68 
66 70 
66 702 
71 77 
71 78 
71 91 
72 79 
72 80 
72 92 
73 77 
73 80 
73 173 
74 78 
74 79 
74 174 
75 77 
75 79 
75 681 
76 78 
76 80 
76 682 
81 87 
81 88 
81 151 
82 89 
82 90 
82 152 
83 87 
83 90 
83 253 
84 88 
84 89 
84 254 
85 87 
85 89 
85 571 
86 88 
86 90 
86 572 
91 97 
91 98 
92 99 
92 100 
93 97 
93 100 
93 423 
94 98 
94 99 
94 424 
95 97 
95 99 
95 661 
96 98 
96 100 
96 662 
101 107 
101 108 
101 391 
102 109 
102 110 
102 392 
103 107 
103 110 
103 643 
104 108 
104 109 
104 644 
105 107 
105 109 
105 663 
106 108 
106 110 
106 664 
111 117 
111 118 
111 393 
112 119 
112 120 
112 394 
113 117 
113 120 
113 431 
114 118 
114 119 
114 432 
115 117 
115 119 
115 601 
116 118 
116 120 
116 602 
121 127 
121 128 
121 231 
122 129 
122 130 
122 232 
123 127 
123 130 
123 301 
124 128 
124 129 
124 302 
125 127 
125 129 
125 811 
126 128 
126 130 
126 812 
131 137 
131 138 
131 141 
132 139 
132 140 
132 142 
133 137 
133 140 
133 193 
134 138 
134 139 
134 194 
135 137 
135 139 
135 573 
136 138 
136 140 
136 574 
141 147 
141 148 
142 149 
142 150 
143 147 
143 150 
143 531 
144 148 
144 149 
144 532 
145 147 
145 149 
145 823 
146 148 
146 150 
146 824 
151 157 
151 158 
152 159 
152 160 
153 157 
153 160 
153 291 
154 158 
154 159 
154 292 
155 157 
155 159 
155 321 
156 158 
156 160 
156 322 
161 167 
161 168 
162 169 
162 170 
163 167 
163 170 
163 453 
164 168 
164 169 
164 454 
165 167 
165 169 
165 511 
166 168 
166 170 
166 512 
171 177 
171 178 
172 179 
172 180 
173 177 
173 180 
174 178 
174 179 
175 177 
175 179 
175 731 
176 178 
176 180 
176 732 
181 187 
181 188 
182 189 
182 190 
183 187 
183 190 
183 361 
184 188 
184 189 
184 362 
185 187 
185 189 
185 481 
186 188 
186 190 
186 482 
191 197 
191 198 
192 199 
192 200 
193 197 
193 200 
194 198 
194 199 
195 197 
195 199 
195 281 
196 198 
196 200 
196 282 
201 207 
201 208 
202 209 
202 210 
203 207 
203 210 
203 221 
204 208 
204 209 
204 222 
205 207 
205 209 
205 283 
206 208 
206 210 
206 284 
211 217 
211 218 
211 351 
212 219 
212 220 
212 352 
213 217 
213 220 
213 553 
214 218 
214 219 
214 554 
215 217 
215 219 
215 741 
216 218 
216 220 
216 742 
221 227 
221 228 
222 229 
222 230 
223 227 
223 230 
223 543 
224 228 
224 229 
224 544 
225 227 
225 229 
225 683 
226 228 
226 230 
226 684 
231 237 
231 238 
232 239 
232 240 
233 237 
233 240 
233 331 
234 238 
234 239 
234 332 
235 237 
235 239 
235 591 
236 238 
236 240 
236 592 
241 247 
241 248 
241 271 
242 249 
242 250 
242 272 
243 247 
243 250 
243 721 
244 248 
244 249 
244 722 
245 247 
245 249 
245 751 
246 248 
246 250 
246 752 
251 257 
251 258 
252 259 
252 260 
253 257 
253 260 
254 258 
254 259 
255 257 
255 259 
255 303 
256 258 
256 260 
256 304 
261 267 
261 268 
261 381 
262 269 
262 270 
262 382 
263 267 
263 270 
263 611 
264 268 
264 269 
264 612 
265 267 
265 269 
265 743 
266 268 
266 270 
266 744 
271 277 
271 278 
272 279 
272 280 
273 277 
273 280 
273 441 
274 278 
274 279 
274 442 
275 277 
275 279 
275 491 
276 278 
276 280 
276 492 
281 287 
281 288 
282 289 
282 290 
283 287 
283 290 
284 288 
284 289 
285 287 
285 289 
285 801 
286 288 
286 290 
286 802 
291 297 
291 298 
292 299 
292 300 
293 297 
293 300 
293 483 
294 298 
294 299 
294 484 
295 297 
295 299 
295 645 
296 298 
296 300 
296 646 
301 307 
301 308 
302 309 
302 310 
303 307 
303 310 
304 308 
304 309 
305 307 
305 309 
305 761 
306 308 
306 310 
306 762 
311 317 
311 318 
311 521 
312 319 
312 320 
312 522 
313 317 
313 320 
313 711 
314 318 
314 319 
314 712 
315 317 
315 319 
315 745 
316 318 
316 320 
316 746 
321 327 
321 328 
322 329 
322 330 
323 327 
323 330 
323 471 
324 328 
324 329 
324 472 
325 327 
325 329 
325 603 
326 328 
326 330 
326 604 
331 337 
331 338 
332 339 
332 340 
333 337 
333 340 
333 341 
334 338 
334 339 
334 342 
335 337 
335 339 
335 581 
336 338 
336 340 
336 582 
341 347 
341 348 
342 349 
342 350 
343 347 
343 350 
343 401 
344 348 
344 349 
344 402 
345 347 
345 349 
345 771 
346 348 
346 350 
346 772 
351 357 
351 358 
352 359 
352 360 
353 357 
353 360 
353 443 
354 358 
354 359 
354 444 
355 357 
355 359 
355 691 
356 358 
356 360 
356 692 
361 367 
361 368 
362 369 
362 370 
363 367 
363 370 
363 455 
364 368 
364 369 
364 456 
365 367 
365 369 
365 563 
366 368 
366 370 
366 564 
371 377 
371 378 
372 379 
372 380 
373 377 
373 380 
373 565 
374 378 
374 379 
374 566 
375 377 
375 379 
375 723 
376 378 
376 380 
376 724 
381 387 
381 388 
382 389 
382 390 
383 387 
383 390 
383 501 
384 388 
384 389 
384 502 
385 387 
385 389 
385 513 
386 388 
386 390 
386 514 
391 397 
391 398 
392 399 
392 400 
393 397 
393 400 
394 398 
394 399 
395 397 
395 399 
395 461 
396 398 
396 400 
396 462 
401 407 
401 408 
402 409 
402 410 
403 407 
403 410 
403 555 
404 408 
404 409 
404 556 
405 407 
405 409 
405 733 
406 408 
406 410 
406 734 
411 417 
411 418 
411 445 
412 419 
412 420 
412 446 
413 417 
413 420 
413 493 
414 418 
414 419 
414 494 
415 417 
415 419 
415 673 
416 418 
416 420 
416 674 
421 427 
421 428 
422 429 
422 430 
423 427 
423 430 
424 428 
424 429 
425 427 
425 429 
425 813 
426 428 
426 430 
426 814 
431 437 
431 438 
432 439 
432 440 
433 437 
433 440 
433 703 
434 438 
434 439 
434 704 
435 437 
435 439 
435 773 
436 438 
436 440 
436 774 
441 447 
441 448 
442 449 
442 450 
443 447 
443 450 
444 448 
444 449 
445 447 
445 449 
446 448 
446 450 
451 457 
451 458 
452 459 
452 460 
453 457 
453 460 
454 458 
454 459 
455 457 
455 459 
456 458 
456 460 
461 467 
461 468 
462 469 
462 470 
463 467 
463 470 
463 621 
464 468 
464 469 
464 622 
465 467 
465 469 
465 791 
466 468 
466 470 
466 792 
471 477 
471 478 
472 479 
472 480 
473 477 
473 480 
473 623 
474 478 
474 479 
474 624 
475 477 
475 479 
475 753 
476 478 
476 480 
476 754 
481 487 
481 488 
482 489 
482 490 
483 487 
483 490 
484 488 
484 489 
485 487 
485 489 
485 693 
486 488 
486 490 
486 694 
491 497 
491 498 
492 499 
492 500 
493 497 
493 500 
494 498 
494 499 
495 497 
495 499 
495 613 
496 498 
496 500 
496 614 
501 507 
501 508 
502 509 
502 510 
503 507 
503 510 
503 515 
504 508 
504 509 
504 516 
505 507 
505 509 
505 631 
506 508 
506 510 
506 632 
511 517 
511 518 
512 519 
512 520 
513 517 
513 520 
514 518 
514 519 
515 517 
515 519 
516 518 
516 520 
521 527 
521 528 
522 529 
522 530 
523 527 
523 530 
523 593 
524 528 
524 529 
524 594 
525 527 
525 529 
525 705 
526 528 
526 530 
526 706 
531 537 
531 538 
532 539 
532 540 
533 537 
533 540 
533 665 
534 538 
534 539 
534 666 
535 537 
535 539 
535 725 
536 538 
536 540 
536 726 
541 547 
541 548 
542 549 
542 550 
543 547 
543 550 
544 548 
544 549 
545 547 
545 549 
545 651 
546 548 
546 550 
546 652 
551 557 
551 558 
552 559 
552 560 
553 557 
553 560 
554 558 
554 559 
555 557 
555 559 
556 558 
556 560 
561 567 
561 568 
562 569 
562 570 
563 567 
563 570 
564 568 
564 569 
565 567 
565 569 
566 568 
566 570 
571 577 
571 578 
572 579 
572 580 
573 577 
573 580 
574 578 
574 579 
575 577 
575 579 
575 831 
576 578 
576 580 
576 832 
581 587 
581 588 
582 589 
582 590 
583 587 
583 590 
583 793 
584 588 
584 589 
584 794 
585 587 
585 589 
585 803 
586 588 
586 590 
586 804 
591 597 
591 598 
592 599 
592 600 
593 597 
593 600 
594 598 
594 599 
595 597 
595 599 
595 805 
596 598 
596 600 
596 806 
601 607 
601 608 
602 609 
602 610 
603 607 
603 610 
604 608 
604 609 
605 607 
605 609 
605 615 
606 608 
606 610 
606 616 
611 617 
611 618 
612 619 
612 620 
613 617 
613 620 
614 618 
614 619 
615 617 
615 619 
616 618 
616 620 
621 627 
621 628 
622 629 
622 630 
623 627 
623 630 
624 628 
624 629 
625 627 
625 629 
625 713 
626 628 
626 630 
626 714 
631 637 
631 638 
632 639 
632 640 
633 637 
633 640 
633 675 
634 638 
634 639 
634 676 
635 637 
635 639 
635 783 
636 638 
636 640 
636 784 
641 647 
641 648 
642 649 
642 650 
643 647 
643 650 
644 648 
644 649 
645 647 
645 649 
646 648 
646 650 
651 657 
651 658 
652 659 
652 660 
653 657 
653 660 
653 775 
654 658 
654 659 
654 776 
655 657 
655 659 
655 833 
656 658 
656 660 
656 834 
661 667 
661 668 
662 669 
662 670 
663 667 
663 670 
664 668 
664 669 
665 667 
665 669 
666 668 
666 670 
671 677 
671 678 
672 679 
672 680 
673 677 
673 680 
674 678 
674 679 
675 677 
675 679 
676 678 
676 680 
681 687 
681 688 
682 689 
682 690 
683 687 
683 690 
684 688 
684 689 
685 687 
685 689 
685 785 
686 688 
686 690 
686 786 
691 697 
691 698 
692 699 
692 700 
693 697 
693 700 
694 698 
694 699 
695 697 
695 699 
695 795 
696 698 
696 700 
696 796 
701 707 
701 708 
702 709 
702 710 
703 707 
703 710 
704 708 
704 709 
705 707 
705 709 
706 708 
706 710 
711 717 
711 718 
712 719 
712 720 
713 717 
713 720 
714 718 
714 719 
715 717 
715 719 
715 755 
716 718 
716 720 
716 756 
721 727 
721 728 
722 729 
722 730 
723 727 
723 730 
724 728 
724 729 
725 727 
725 729 
726 728 
726 730 
731 737 
731 738 
732 739 
732 740 
733 737 
733 740 
734 738 
734 739 
735 737 
735 739 
735 825 
736 738 
736 740 
736 826 
741 747 
741 748 
742 749 
742 750 
743 747 
743 750 
744 748 
744 749 
745 747 
745 749 
746 748 
746 750 
751 757 
751 758 
752 759 
752 760 
753 757 
753 760 
754 758 
754 759 
755 757 
755 759 
756 758 
756 760 
761 767 
761 768 
762 769 
762 770 
763 767 
763 770 
763 815 
764 768 
764 769 
764 816 
765 767 
765 769 
765 835 
766 768 
766 770 
766 836 
771 777 
771 778 
772 779 
772 780 
773 777 
773 780 
774 778 
774 779 
775 777 
775 779 
776 778 
776 780 
781 787 
781 788 
782 789 
782 790 
783 787 
783 790 
784 788 
784 789 
785 787 
785 789 
786 788 
786 790 
791 797 
791 798 
792 799 
792 800 
793 797 
793 800 
794 798 
794 799 
795 797 
795 799 
796 798 
796 800 
801 807 
801 808 
802 809 
802 810 
803 807 
803 810 
804 808 
804 809 
805 807 
805 809 
806 808 
806 810 
811 817 
811 818 
812 819 
812 820 
813 817 
813 820 
814 818 
814 819 
815 817 
815 819 
816 818 
816 820 
821 827 
821 828 
822 829 
822 830 
823 827 
823 830 
824 828 
824 829 
825 827 
825 829 
826 828 
826 830 
831 837 
831 838 
832 839 
832 840 
833 837 
833 840 
834 838 
834 839 
835 837 
835 839 
836 838 
836 840 
